************************************************************************
file with basedata            : md345_.bas
initial value random generator: 881875105
************************************************************************
projects                      :  1
jobs (incl. supersource/sink ):  22
horizon                       :  154
RESOURCES
  - renewable                 :  2   R
  - nonrenewable              :  2   N
  - doubly constrained        :  0   D
************************************************************************
PROJECT INFORMATION:
pronr.  #jobs rel.date duedate tardcost  MPM-Time
    1     20      0       23       16       23
************************************************************************
PRECEDENCE RELATIONS:
jobnr.    #modes  #successors   successors
   1        1          3           2   3   4
   2        3          2           6  10
   3        3          2          10  12
   4        3          3           5  11  16
   5        3          1          10
   6        3          3           7  16  19
   7        3          3           8   9  11
   8        3          3          13  14  15
   9        3          3          12  17  18
  10        3          3          13  18  19
  11        3          2          12  15
  12        3          1          14
  13        3          2          20  21
  14        3          1          20
  15        3          1          17
  16        3          1          18
  17        3          2          20  21
  18        3          1          21
  19        3          1          22
  20        3          1          22
  21        3          1          22
  22        1          0        
************************************************************************
REQUESTS/DURATIONS:
jobnr. mode duration  R 1  R 2  N 1  N 2
------------------------------------------------------------------------
  1      1     0       0    0    0    0
  2      1     3       3    0    0    5
         2     5       2    0    5    0
         3     8       2    0    4    0
  3      1     7       2    0    0    5
         2     7       2    0    2    0
         3     9       2    0    0    4
  4      1     6       8    0    0    8
         2     7       0    8    4    0
         3     8       6    0    0    1
  5      1     3       8    0    8    0
         2     6       0    5    6    0
         3     9       0    5    0    1
  6      1     1       0    5    8    0
         2     5       0    5    0    4
         3     5       3    0    0    5
  7      1     2       9    0    5    0
         2     6       7    0    0    7
         3     6       5    0    4    0
  8      1     1       0    4    7    0
         2     3       0    2    4    0
         3     4       3    0    0    6
  9      1     5       0    4    7    0
         2     7       8    0    3    0
         3     8       0    4    0    6
 10      1     2       3    0    8    0
         2     7       0    4    0    7
         3     9       2    0    7    0
 11      1     1       0    1    5    0
         2     6       9    0    0    4
         3     7       7    0    0    2
 12      1     2       2    0    2    0
         2     6       0    7    2    0
         3    10       0    5    1    0
 13      1     5       0    8    0    8
         2     7       9    0    0    8
         3     7       0    1    0    8
 14      1     3       0    8    7    0
         2     9       6    0    0    4
         3    10       5    0    5    0
 15      1     8       7    0    9    0
         2     8       0    5    6    0
         3     8       0    5    0    6
 16      1     2       4    0    5    0
         2     5       2    0    3    0
         3    10       0    7    0    6
 17      1     2       7    0    0    6
         2     5       0    4    5    0
         3     5       4    0    0    6
 18      1     2       0    7    0   10
         2     6       9    0    9    0
         3     8       7    0    8    0
 19      1     4       0   10    2    0
         2     6       0   10    0   10
         3     7       9    0    0    8
 20      1     6       0    9   10    0
         2     6       0    7    0    7
         3     8       6    0    9    0
 21      1     1       7    0    7    0
         2     5       0    1    0   10
         3     8       3    0    0   10
 22      1     0       0    0    0    0
************************************************************************
RESOURCEAVAILABILITIES:
  R 1  R 2  N 1  N 2
   13    7  115  121
************************************************************************
MAXIMAL LAGS:
from  to  type  delay
    1   22   ES      0
    1    2   ES      0
    2   22   ES      0
    1    3   ES      0
    3   22   ES      0
    1    4   ES      0
    4   22   ES      0
    1    5   ES      0
    5   22   ES      0
    1    6   ES      0
    6   22   ES      0
    1    7   ES      0
    7   22   ES      0
    1    8   ES      0
    8   22   ES      0
    1    9   ES      0
    9   22   ES      0
    1   10   ES      0
   10   22   ES      0
    1   11   ES      0
   11   22   ES      0
    1   12   ES      0
   12   22   ES      0
    1   13   ES      0
   13   22   ES      0
    1   14   ES      0
   14   22   ES      0
    1   15   ES      0
   15   22   ES      0
    1   16   ES      0
   16   22   ES      0
    1   17   ES      0
   17   22   ES      0
    1   18   ES      0
   18   22   ES      0
    1   19   ES      0
   19   22   ES      0
    1   20   ES      0
   20   22   ES      0
    1   21   ES      0
   21   22   ES      0
    1   22   ES      0
    2    6   SS    -10
    2    6   SE      7
    2    6   ES     -9
    2    6   EE    -12
    2   10   SS    -12
    2   10   SE      7
    2   10   ES    -11
    2   10   EE    -12
    3   10   SS     -4
    3   10   SE    -12
    3   10   ES     -3
    3   10   EE      2
    3   12   SS      0
    3   12   SE     11
    3   12   ES      6
    3   12   EE     -7
    4    5   SS     -9
    4    5   SE    -11
    4    5   ES     -1
    4    5   EE     -6
    4   11   SS      8
    4   11   SE     -6
    4   11   ES      1
    4   11   EE     11
    4   16   SS     -1
    4   16   SE    -10
    4   16   ES     -4
    4   16   EE      1
    5   10   SS      8
    5   10   SE    -12
    5   10   ES     -3
    5   10   EE     12
    6    7   SS    -11
    6    7   SE     -9
    6    7   ES     -3
    6    7   EE     -8
    6   16   SS     -4
    6   16   SE      2
    6   16   ES     -6
    6   16   EE     -9
    6   19   SS      8
    6   19   SE     11
    6   19   ES      9
    6   19   EE    -12
    7    8   SS      3
    7    8   SE     -7
    7    8   ES    -12
    7    8   EE     -9
    7    9   SS    -10
    7    9   SE     11
    7    9   ES     -5
    7    9   EE      2
    7   11   SS      6
    7   11   SE     10
    7   11   ES      5
    7   11   EE     -4
    8   13   SS     -4
    8   13   SE    -12
    8   13   ES     10
    8   13   EE      6
    8   14   SS      3
    8   14   SE    -10
    8   14   ES     11
    8   14   EE     10
    8   15   SS     -8
    8   15   SE     -6
    8   15   ES    -10
    8   15   EE      0
    9   12   SS      9
    9   12   SE      0
    9   12   ES    -12
    9   12   EE    -11
    9   17   SS      3
    9   17   SE      1
    9   17   ES      2
    9   17   EE      1
    9   18   SS     -7
    9   18   SE    -12
    9   18   ES      6
    9   18   EE    -11
   10   13   SS      9
   10   13   SE    -10
   10   13   ES     12
   10   13   EE     -4
   10   18   SS     10
   10   18   SE     -3
   10   18   ES     11
   10   18   EE      3
   10   19   SS     -6
   10   19   SE     -4
   10   19   ES    -12
   10   19   EE      9
   11   12   SS     -4
   11   12   SE     -6
   11   12   ES     -5
   11   12   EE     10
   11   15   SS      2
   11   15   SE    -12
   11   15   ES      8
   11   15   EE    -11
   12   14   SS      6
   12   14   SE      1
   12   14   ES      5
   12   14   EE     10
   13   20   SS      3
   13   20   SE     -5
   13   20   ES     10
   13   20   EE     11
   13   21   SS    -11
   13   21   SE     -3
   13   21   ES     -1
   13   21   EE    -10
   14   20   SS      7
   14   20   SE     -1
   14   20   ES      2
   14   20   EE      3
   15   17   SS      5
   15   17   SE     -7
   15   17   ES     -1
   15   17   EE      9
   16   18   SS     -1
   16   18   SE     11
   16   18   ES      5
   16   18   EE      5
   17   20   SS     -8
   17   20   SE     -2
   17   20   ES     11
   17   20   EE      8
   17   21   SS     -1
   17   21   SE      1
   17   21   ES     -7
   17   21   EE      6
   18   21   SS      0
   18   21   SE     -1
   18   21   ES      2
   18   21   EE     -1
************************************************************************
